1118793
0,47,36,73,69,32,8,56,46,94,31,59,30,61,92,48,55,9,76,29,95,20,19,17,68,40,74,5,62,12,67,98,35,49,87,82,14,15,57,81,66,60,75,37,86,44,85,80,3,65,6,13,38,91,83,21,72,51,64,53,97,70,33,22,10,27,45,42,23,58,89,18,16,25,11,93,39,28,78,50,77,24,79,71,54,43,90,41,34,96,1,2,4,63,26,52,7,88,84,0